presolving:
(round 1, fast)       383 del vars, 36 del conss, 0 add conss, 0 chg bounds, 12 chg sides, 12 chg coeffs, 0 upgd conss, 0 impls, 4586 clqs
   (0.0s) running MILP presolver
   (0.1s) MILP presolver (2 rounds): 0 aggregations, 0 fixings, 0 bound changes
(round 2, exhaustive) 383 del vars, 39 del conss, 0 add conss, 0 chg bounds, 12 chg sides, 12 chg coeffs, 4587 upgd conss, 0 impls, 4586 clqs
   (2.9s) probing: 1000/4181 (23.9%) - 0 fixings, 0 aggregations, 1691718 implications, 0 bound changes
   (2.9s) probing: 1001/4181 (23.9%) - 0 fixings, 0 aggregations, 1693395 implications, 0 bound changes
   (2.9s) probing aborted: 1000/1000 successive useless probings
   (2.9s) symmetry computation started: requiring (bin +, int -, cont +), (fixed: bin -, int +, cont -)
   (2.9s) no symmetry present
presolving (3 rounds: 3 fast, 2 medium, 2 exhaustive):
 383 deleted vars, 39 deleted constraints, 0 added constraints, 0 tightened bounds, 0 added holes, 12 changed sides, 13 changed coefficients
 0 implications, 15435 cliques
presolved problem has 4181 variables (4181 bin, 0 int, 0 impl, 0 cont) and 4587 constraints
      1 constraints of type <knapsack>
   4586 constraints of type <setppc>
transformed objective value is always integral (scale: 1)
Presolving Time: 2.89

 time | node  | left  |LP iter|LP it/n|mem/heur|mdpt |vars |cons |rows |cuts |sepa|confs|strbr|  dualbound   | primalbound  |  gap   | compl. 
p 3.0s|     1 |     0 |    54 |     - |  clique|   0 |4181 |4587 |4587 |   0 |  0 |   0 |   0 | 0.000000e+00 | 1.009860e+05 |    Inf | unknown
  3.3s|     1 |     0 |  1453 |     - |    55M |   0 |4181 |4620 |4587 |   0 |  0 |  33 |   0 | 8.245370e+04 | 1.009860e+05 |  22.48%| unknown
  4.3s|     1 |     0 |  1664 |     - |    60M |   0 |4181 |4620 |4590 |   3 |  1 |  33 |   0 | 8.281111e+04 | 1.009860e+05 |  21.95%| unknown
  4.6s|     1 |     0 |  1818 |     - |    64M |   0 |4181 |4621 |4596 |   9 |  2 |  34 |   0 | 8.297557e+04 | 1.009860e+05 |  21.71%| unknown
  5.2s|     1 |     0 |  2174 |     - |    68M |   0 |4181 |4621 |4600 |  13 |  3 |  34 |   0 | 8.327877e+04 | 1.009860e+05 |  21.26%| unknown
  5.5s|     1 |     0 |  2566 |     - |    70M |   0 |4181 |4621 |4608 |  21 |  4 |  34 |   0 | 8.352050e+04 | 1.009860e+05 |  20.91%| unknown
  6.0s|     1 |     0 |  2747 |     - |    73M |   0 |4181 |4621 |4615 |  28 |  5 |  34 |   0 | 8.360230e+04 | 1.009860e+05 |  20.79%| unknown
  6.5s|     1 |     0 |  2868 |     - |    81M |   0 |4181 |4621 |4619 |  32 |  6 |  34 |   0 | 8.367353e+04 | 1.009860e+05 |  20.69%| unknown
  6.8s|     1 |     0 |  2939 |     - |    81M |   0 |4181 |4621 |4621 |  34 |  7 |  34 |   0 | 8.369150e+04 | 1.009860e+05 |  20.66%| unknown
  7.2s|     1 |     0 |  3097 |     - |    82M |   0 |4181 |4621 |4627 |  40 |  8 |  34 |   0 | 8.375556e+04 | 1.009860e+05 |  20.57%| unknown
  7.5s|     1 |     0 |  3247 |     - |    83M |   0 |4181 |4621 |4638 |  51 |  9 |  34 |   0 | 8.377158e+04 | 1.009860e+05 |  20.55%| unknown
  7.8s|     1 |     0 |  3398 |     - |    83M |   0 |4181 |4622 |4641 |  54 | 10 |  35 |   0 | 8.379138e+04 | 1.009860e+05 |  20.52%| unknown
  7.9s|     1 |     0 |  3463 |     - |    84M |   0 |4181 |4622 |4644 |  57 | 11 |  35 |   0 | 8.379895e+04 | 1.009860e+05 |  20.51%| unknown
  8.0s|     1 |     0 |  3592 |     - |    84M |   0 |4181 |4622 |4647 |  60 | 12 |  35 |   0 | 8.382476e+04 | 1.009860e+05 |  20.47%| unknown
  8.2s|     1 |     0 |  3735 |     - |    85M |   0 |4181 |4623 |4648 |  64 | 13 |  36 |   0 | 8.385834e+04 | 1.009860e+05 |  20.42%| unknown
 time | node  | left  |LP iter|LP it/n|mem/heur|mdpt |vars |cons |rows |cuts |sepa|confs|strbr|  dualbound   | primalbound  |  gap   | compl. 
  8.3s|     1 |     0 |  3824 |     - |    85M |   0 |4181 |4623 |4649 |  65 | 14 |  36 |   0 | 8.386779e+04 | 1.009860e+05 |  20.41%| unknown
  8.4s|     1 |     0 |  4040 |     - |    86M |   0 |4181 |4624 |4657 |  73 | 15 |  37 |   0 | 8.392339e+04 | 1.009860e+05 |  20.33%| unknown
  8.5s|     1 |     0 |  4072 |     - |    86M |   0 |4181 |4624 |4659 |  75 | 16 |  37 |   0 | 8.392817e+04 | 1.009860e+05 |  20.32%| unknown
  8.6s|     1 |     0 |  4126 |     - |    87M |   0 |4181 |4624 |4660 |  76 | 17 |  37 |   0 | 8.394320e+04 | 1.009860e+05 |  20.30%| unknown
  8.8s|     1 |     0 |  4289 |     - |    87M |   0 |4181 |4624 |4662 |  78 | 18 |  37 |   0 | 8.397792e+04 | 1.009860e+05 |  20.25%| unknown
  8.9s|     1 |     0 |  4351 |     - |    87M |   0 |4181 |4624 |4653 |  79 | 19 |  37 |   0 | 8.398666e+04 | 1.009860e+05 |  20.24%| unknown
  9.0s|     1 |     0 |  4566 |     - |    88M |   0 |4181 |4624 |4654 |  80 | 20 |  37 |   0 | 8.401949e+04 | 1.009860e+05 |  20.19%| unknown
  9.1s|     1 |     0 |  4586 |     - |    88M |   0 |4181 |4624 |4655 |  81 | 22 |  37 |   0 | 8.402114e+04 | 1.009860e+05 |  20.19%| unknown
 14.7s|     1 |     2 | 12822 |     - |    89M |   0 |4181 |4625 |4655 |  81 | 24 |  38 |  21 | 8.432520e+04 | 1.009860e+05 |  19.76%| unknown
*15.0s|     2 |     1 | 14243 |9889.0 |strongbr|   1 |4181 |4625 |4641 |  81 |  1 |  38 |  21 | 8.432520e+04 | 9.218100e+04 |   9.32%| unknown
*20.0s|     5 |     2 | 15734 |2845.0 |strongbr|   3 |4181 |4499 |4641 |  81 |  1 |  38 |  67 | 8.471086e+04 | 8.876900e+04 |   4.79%|  76.27%
*20.2s|     6 |     1 | 15913 |2311.8 |strongbr|   3 |4181 |4503 |4641 |  81 |  5 |  42 |  75 | 8.471086e+04 | 8.849100e+04 |   4.46%|  80.85%

SCIP Status        : problem is solved [optimal solution found]
Solving Time (sec) : 23.84
Solving Nodes      : 9
Primal Bound       : +8.84910000000000e+04 (5 solutions)
Dual Bound         : +8.84910000000000e+04
Gap                : 0.00 %
Solve Status: optimal
Solve Time: 23.84 seconds
Objective Value: 88491.00
